(set-logic LIA) (declare-var xPostExec Int) (declare-var y!M0 Int) (declare-var inB3 Bool) (declare-var inI1 Int) (declare-var x!0 Int) (declare-var J5 Bool) (declare-var yPostExec Int) (declare-var y!8 Int) (synth-fun rankingFunction!0 ((arg0 Int) (arg1 Int)) Int ((NTInt Int) (NTbool Bool)) ((NTInt Int (arg0 arg1 0 1 (- NTInt) (+ NTInt NTInt) (- NTInt NTInt) (ite NTbool NTInt NTInt))) (NTbool Bool ((not NTbool) (and NTbool NTbool) (or NTbool NTbool) (ite NTbool NTbool NTbool) (= NTInt NTInt) (< NTInt NTInt) (> NTInt NTInt))))) (constraint (=> (and (and (and (and (and (and (and (= J5 (<= x!0 y!M0)) (= y!8 (+ 1 y!M0))) (=> (not J5) (= yPostExec y!8))) (not J5)) (= inB3 (<= x!0 inI1))) (= y!M0 (+ 1 inI1))) (not inB3)) (= x!0 xPostExec)) (and (> (rankingFunction!0 x!0 y!M0) (rankingFunction!0 xPostExec yPostExec)) (>= (rankingFunction!0 x!0 y!M0) 0)))) (check-synth)